sm_isp_SD0545372-standardized_unitcell
1.0
        5.8740000725         0.0000000000         0.0000000000
        0.0000000000         5.8740000725         0.0000000000
        0.0000000000         0.0000000000         5.8740000725
   Br   Cs   Pb
    3    1    1
Direct
     0.500000000         0.000000000         0.000000000
     0.000000000         0.500000000         0.000000000
     0.000000000         0.000000000         0.500000000
     0.500000000         0.500000000         0.500000000
     0.000000000         0.000000000         0.000000000
